NAME : LC1_6_10
TYPE : PDPTW
DIMENSION : 150
EDGE_WEIGHT_TYPE : EXACT_2D
NODE_COORD_SECTION
1 1 0
2 150 0
3 0 0
4 20 171
5 454 2
6 333 858
7 3 229
8 635 90
9 214 156
10 90 420
11 260 10
12 0 147
13 10 175
14 95 7
15 163 591
16 8 85
17 1255 90
18 105 230
19 90 0
20 111 30
21 0 425
22 -20 749
23 0 12
24 399 926
25 13 143
26 425 90
27 173 233
28 90 21
29 24 20
30 0 488
31 -20 136
32 0 17
33 405 779
34 18 141
35 624 90
36 100 73
37 90 0
38 70 -20
39 391 0
40 10 69
41 14 22
42 176 731
43 23 129
44 810 90
45 62 65
46 90 382
47 239 10
48 0 114
49 40 320
50 436 27
51 442 1055
52 28 203
53 543 90
54 251 241
55 90 0
56 110 20
57 0 506
58 10 93
59 160 32
60 578 1180
61 33 145
62 729 90
63 121 170
64 90 38
65 141 -20
66 117 0
67 20 178
68 316 37
69 505 966
70 38 122
71 768 90
72 119 267
73 90 0
74 113 20
75 0 525
76 -10 466
77 0 42
78 116 612
79 43 157
80 1287 90
81 73 226
82 90 0
83 109 40
84 0 612
85 -10 755
86 0 47
87 54 537
88 48 31
89 944 90
90 10 147
91 90 0
92 176 20
93 0 163
94 20 135
95 16 52
96 125 655
97 53 119
98 736 90
99 220 74
100 90 347
101 175 30
102 0 340
103 -10 364
104 0 57
105 135 751
106 58 61
107 728 90
108 140 143
109 90 0
110 125 30
111 0 523
112 20 38
113 215 62
114 632 1035
115 63 103
116 581 90
117 71 154
118 0 0
119 27 -20
120 170 0
121 -20 669
122 0 67
123 392 742
124 68 108
125 694 90
126 86 230
127 90 0
128 221 -20
129 410 0
130 10 35
131 77 72
132 138 657
133 73 151
134 697 90
135 83 30
136 90 212
137 184 20
138 0 562
139 10 48
140 568 77
141 346 855
142 78 263
143 861 90
144 259 59
145 90 405
146 26 -10
147 126 0
148 20 605
149 631 82
150 437 1009
PICKUP_AND_DELIVERY_SECTION
1 0 0 0 0 0 0
2 0 0 0 0 1496 0
3 0 0 0 0 0 17
4 0 0 0 0 90 90
5 0 0 0 0 254 254
6 0 0 0 0 112 112
7 0 0 0 0 10 10
8 0 0 0 0 168 0
9 0 0 0 0 453 453
10 0 0 0 0 5 0
11 0 0 0 0 645 645
12 0 0 0 0 29 29
13 0 0 0 0 90 90
14 0 0 0 0 277 277
15 0 0 0 0 0 0
16 0 0 0 0 -20 -20
17 0 0 0 0 0 0
18 0 0 0 0 91 91
19 0 0 0 0 10 10
20 0 0 0 0 667 667
21 0 0 0 0 65 65
22 0 0 0 0 90 90
23 0 0 0 0 233 233
24 0 0 0 0 128 128
25 0 0 0 0 20 20
26 0 0 0 0 393 0
27 0 0 0 0 508 508
28 0 0 0 0 15 0
29 0 0 0 0 649 649
30 0 0 0 0 277 277
31 0 0 0 0 90 90
32 0 0 0 0 105 105
33 0 0 0 0 312 312
34 0 0 0 0 30 30
35 0 0 0 0 86 0
36 0 0 0 0 91 91
37 0 0 0 0 20 20
38 0 0 0 0 706 706
39 0 0 0 0 161 161
40 0 0 0 0 90 90
41 0 0 0 0 280 280
42 0 0 0 0 0 0
43 0 0 0 0 -20 -20
44 0 0 0 0 0 0
45 0 0 0 0 722 722
46 0 0 0 0 25 0
47 0 0 0 0 831 831
48 0 0 0 0 9 9
49 0 0 0 0 90 90
50 0 0 0 0 228 228
51 0 0 0 0 0 0
52 0 0 0 0 20 20
53 0 0 0 0 536 0
54 0 0 0 0 135 135
55 0 0 0 0 30 30
56 0 0 0 0 658 658
57 0 0 0 0 106 106
58 0 0 0 0 90 90
59 0 0 0 0 102 102
60 0 0 0 0 120 120
61 0 0 0 0 10 10
62 0 0 0 0 56 0
63 0 0 0 0 343 343
64 0 0 0 0 35 0
65 0 0 0 0 660 660
66 0 0 0 0 167 167
67 0 0 0 0 90 90
68 0 0 0 0 229 229
69 0 0 0 0 0 0
70 0 0 0 0 10 10
71 0 0 0 0 34 0
72 0 0 0 0 490 490
73 0 0 0 0 40 40
74 0 0 0 0 884 884
75 0 0 0 0 257 257
76 0 0 0 0 90 90
77 0 0 0 0 266 266
78 0 0 0 0 0 0
79 0 0 0 0 -20 -20
80 0 0 0 0 0 0
81 0 0 0 0 108 108
82 0 0 0 0 45 45
83 0 0 0 0 456 456
84 0 0 0 0 12 12
85 0 0 0 0 90 90
86 0 0 0 0 126 126
87 0 0 0 0 0 0
88 0 0 0 0 -10 -10
89 0 0 0 0 0 0
90 0 0 0 0 191 191
91 0 0 0 0 50 50
92 0 0 0 0 563 563
93 0 0 0 0 277 277
94 0 0 0 0 90 90
95 0 0 0 0 232 232
96 0 0 0 0 0 0
97 0 0 0 0 20 20
98 0 0 0 0 398 0
99 0 0 0 0 609 609
100 0 0 0 0 55 0
101 0 0 0 0 653 653
102 0 0 0 0 144 144
103 0 0 0 0 90 90
104 0 0 0 0 285 285
105 0 0 0 0 0 0
106 0 0 0 0 -20 -20
107 0 0 0 0 0 0
108 0 0 0 0 12 12
109 0 0 0 0 60 60
110 0 0 0 0 563 563
111 0 0 0 0 114 114
112 0 0 0 0 90 90
113 0 0 0 0 80 80
114 0 0 0 0 0 0
115 0 0 0 0 -20 -20
116 0 0 0 0 0 0
117 0 0 0 0 586 586
118 0 0 0 0 65 65
119 0 0 0 0 591 591
120 0 0 0 0 67 67
121 0 0 0 0 90 90
122 0 0 0 0 132 132
123 0 0 0 0 257 257
124 0 0 0 0 10 10
125 0 0 0 0 333 0
126 0 0 0 0 102 102
127 0 0 0 0 70 70
128 0 0 0 0 1212 1212
129 0 0 0 0 116 116
130 0 0 0 0 90 90
131 0 0 0 0 28 28
132 0 0 0 0 414 414
133 0 0 0 0 -30 -30
134 0 0 0 0 0 0
135 0 0 0 0 270 270
136 0 0 0 0 75 0
137 0 0 0 0 487 487
138 0 0 0 0 141 141
139 0 0 0 0 90 90
140 0 0 0 0 156 156
141 0 0 0 0 71 71
142 0 0 0 0 -20 -20
143 0 0 0 0 0 0
144 0 0 0 0 293 293
145 0 0 0 0 80 0
146 0 0 0 0 1212 1212
147 0 0 0 0 59 59
148 0 0 0 0 0 0
149 0 0 0 0 4 4
150 0 0 0 0 0 0
DEPOT_SECTION
1 
-1
EOF
